
Gurobi 10.0.1 (win64) logging started Sat Aug 26 14:36:02 2023

Set parameter LogFile to value "results//log/BA_10_makespan.log"
Gurobi Optimizer version 10.0.1 build v10.0.1rc0 (win64)

CPU model: AMD Ryzen 7 3700X 8-Core Processor, instruction set [SSE2|AVX|AVX2]
Thread count: 8 physical cores, 16 logical processors, using up to 16 threads

Optimize a model with 217 rows, 193 columns and 823 nonzeros
Model fingerprint: 0x4cd5d07f
Variable types: 24 continuous, 169 integer (168 binary)
Coefficient statistics:
  Matrix range     [1e+00, 1e+06]
  Objective range  [1e+00, 1e+00]
  Bounds range     [1e+00, 1e+00]
  RHS range        [1e+00, 3e+06]
Found heuristic solution: objective 114.0000000
Presolve removed 42 rows and 106 columns
Presolve time: 0.00s
Presolved: 175 rows, 87 columns, 753 nonzeros
Variable types: 24 continuous, 63 integer (62 binary)

Root relaxation: objective 3.200000e+01, 27 iterations, 0.00 seconds (0.00 work units)

    Nodes    |    Current Node    |     Objective Bounds      |     Work
 Expl Unexpl |  Obj  Depth IntInf | Incumbent    BestBd   Gap | It/Node Time

     0     0   32.00000    0    5  114.00000   32.00000  71.9%     -    0s
H    0     0                     112.0000000   32.00000  71.4%     -    0s
H    0     0                     111.0000000   32.00000  71.2%     -    0s
H    0     0                      90.0000000   32.00000  64.4%     -    0s
H    0     0                      86.0000000   32.00000  62.8%     -    0s
H    0     0                      75.0000000   32.00000  57.3%     -    0s
     0     0   32.00003    0    6   75.00000   32.00003  57.3%     -    0s
H    0     0                      69.0000000   32.00003  53.6%     -    0s
     0     0   33.00000    0   12   69.00000   33.00000  52.2%     -    0s
     0     0   33.80938    0   15   69.00000   33.80938  51.0%     -    0s
     0     0   34.00000    0    4   69.00000   34.00000  50.7%     -    0s
     0     0   34.00000    0    8   69.00000   34.00000  50.7%     -    0s
     0     0   34.00000    0   11   69.00000   34.00000  50.7%     -    0s
H    0     0                      67.0000000   34.00000  49.3%     -    0s
     0     0   34.00000    0    8   67.00000   34.00000  49.3%     -    0s
     0     0   34.00000    0    7   67.00000   34.00000  49.3%     -    0s
H    0     0                      66.0000000   34.00000  48.5%     -    0s
H    0     0                      65.0000000   34.00000  47.7%     -    0s
     0     0   34.00000    0    8   65.00000   34.00000  47.7%     -    0s
     0     0   34.00000    0    4   65.00000   34.00000  47.7%     -    0s
     0     0   34.00000    0   12   65.00000   34.00000  47.7%     -    0s
     0     0   34.13078    0   12   65.00000   34.13078  47.5%     -    0s
     0     0   34.13078    0   13   65.00000   34.13078  47.5%     -    0s
     0     0   35.76477    0    7   65.00000   35.76477  45.0%     -    0s
     0     0   36.76477    0   13   65.00000   36.76477  43.4%     -    0s
H    0     0                      60.0000000   37.00000  38.3%     -    0s
     0     0   37.00000    0    6   60.00000   37.00000  38.3%     -    0s
     0     0   37.00000    0    6   60.00000   37.00000  38.3%     -    0s
     0     2   37.00000    0    6   60.00000   37.00000  38.3%     -    0s

Cutting planes:
  Learned: 65
  Gomory: 8
  Cover: 3
  Implied bound: 12
  MIR: 29
  Flow cover: 80
  Relax-and-lift: 1

Explored 1332 nodes (10970 simplex iterations) in 0.16 seconds (0.10 work units)
Thread count was 16 (of 16 available processors)

Solution count 10: 60 60 65 ... 111

Optimal solution found (tolerance 1.00e-04)
Best objective 6.000000000000e+01, best bound 6.000000000000e+01, gap 0.0000%
Warning: constraint name "precedence between 0,1 to 0,0 if x_[j,l,h,z,i]=1" has a space
Warning: constraint name "precedence between 0,1 to 0,0 if x_[j,l,h,z,i]=1" has a space
Warning: default constraint names used to write mps file
